g3 1 1 0	# problem ammonia
 2 0 14 0 0 	# vars, constraints, objectives, ranges, eqns
 0 13 0 0 0 0	# nonlinear constrs, objs; ccons: lin, nonlin, nd, nzlb
 0 0	# network constraints: nonlinear, linear
 0 2 0 	# nonlinear vars in constraints, objectives, both
 0 0 0 1	# linear network variables; functions; arith, flags
 0 0 0 0 0 	# discrete variables: binary, integer, nonlinear (b,c,o)
 0 20 	# nonzeros in Jacobian, obj. gradient
 0 0	# max name lengths: constraints, variables
 0 0 0 0 0	# common exprs: b,c,o,c1,o1
O0 0
o0
o54
5
o43
v0
o2
n3
o43
v1
o2
n2.224
o43
o0
o16
o44
o2
n-0.01000736181905326
v1
n1
o2
n3.148
o43
o0
o16
o44
o2
n-0.024106433543466692
v1
n1
o2
n0.9579
o43
o0
o16
o44
o2
n-0.04396308220751769
v1
n1
n-6.59406093943886
O1 0
o5
v0
n-1.0
O2 0
o16
o5
v0
n-2.0
O3 0
o0
o54
4
o2
n3.0
o5
v1
n-1.0
o2
o2
n0.07588705279483315
o5
o0
o16
o44
o2
n-0.024106433543466692
v1
n1.0
n-1.0
o44
o2
n-0.024106433543466692
v1
o2
o2
n0.04211223644658119
o5
o0
o16
o44
o2
n-0.04396308220751769
v1
n1.0
n-1.0
o44
o2
n-0.04396308220751769
v1
o2
o2
n0.02225637268557445
o5
o0
o16
o44
o2
n-0.01000736181905326
v1
n1.0
n-1.0
o44
o2
n-0.01000736181905326
v1
n5.60101151987913
O4 0
o54
7
o2
n-3.0
o5
v1
n-2.0
o2
o2
n-0.0018513837128434716
o5
o0
o16
o44
o2
n-0.04396308220751769
v1
n1.0
n-1.0
o44
o2
n-0.04396308220751769
v1
o2
o2
n-0.0018513837128434716
o5
o0
o16
o44
o2
n-0.04396308220751769
v1
n1.0
n-2.0
o44
o2
n-0.08792616441503538
v1
o2
o2
n-0.00022272757424423765
o5
o0
o16
o44
o2
n-0.01000736181905326
v1
n1.0
n-1.0
o44
o2
n-0.01000736181905326
v1
o2
o2
n-0.00022272757424423765
o5
o0
o16
o44
o2
n-0.01000736181905326
v1
n1.0
n-2.0
o44
o2
n-0.02001472363810652
v1
o2
o2
n-0.0018293661950081936
o5
o0
o16
o44
o2
n-0.024106433543466692
v1
n1.0
n-1.0
o44
o2
n-0.024106433543466692
v1
o2
o2
n-0.0018293661950081936
o5
o0
o16
o44
o2
n-0.024106433543466692
v1
n1.0
n-2.0
o44
o2
n-0.048212867086933384
v1
O5 0
o54
20
o2
o2
n0.006132232
o5
v0
n4
v1
o2
o2
n1.7395866
v0
o5
v1
n0.382
o2
o2
n-2.2261792
v0
v1
o2
o2
n-0.30127553
o5
v0
n2
v1
o2
o2
n0.08967023
o5
v0
n3
o5
v1
n0.677
o2
o2
o2
n-0.076387037
o5
v0
n3
o5
v1
n2.915
o44
o16
o5
v0
n2
o2
o2
o2
n-0.84063963
o5
v0
n2
o5
v1
n3.51
o44
o16
o5
v0
n2
o2
o2
o2
n-0.27026327
o5
v0
n3
o5
v1
n1.063
o44
o2
n-1.0
v0
o2
o2
o2
n6.212578
v0
o5
v1
n0.655
o44
o0
o2
n-0.42776
o5
o0
v0
n0.0726
n2
o2
n-1.708
o5
o0
v1
n-1.036
n2
o2
o2
o2
n-5.7844357
v0
o5
v1
n1.3
o44
o0
o2
n-0.6424
o5
o0
v0
n0.1274
n2
o2
n-1.4865
o5
o0
v1
n-1.2777
n2
o2
o2
o2
n2.4817542
v0
o5
v1
n3.1
o44
o0
o2
n-0.8175
o5
o0
v0
n-0.7527
n2
o2
n-2.0915
o5
o0
v1
n-1.083
n2
o2
o2
o2
n-2.3739168
o5
v0
n2
o5
v1
n1.4395
o44
o0
o2
n-0.7995
o5
o0
v0
n-0.57
n2
o2
n-2.43
o5
o0
v1
n-1.2906
n2
o2
o2
o2
n0.01493697
o5
v0
n2
o5
v1
n1.623
o44
o0
o2
n-0.91
o5
o0
v0
n-2.2
n2
o2
n-0.488
o5
o0
v1
n-0.928
n2
o2
o2
o2
n-3.7749264
v0
o5
v1
n0.643
o44
o0
o2
n-0.3574
o5
o0
v0
n0.243
n2
o2
n-1.1
o5
o0
v1
n-0.934
n2
o2
o2
o2
n0.0006254348
o5
v0
n3
o5
v1
n1.13
o44
o0
o2
n-1.21
o5
o0
v0
n-2.96
n2
o2
n-0.85
o5
o0
v1
n-0.919
n2
o2
o2
o2
n-1.7359e-05
o5
v0
n3
o5
v1
n4.5
o44
o0
o2
n-4.14
o5
o0
v0
n-3.02
n2
o2
n-1.14
o5
o0
v1
n-1.852
n2
o2
o2
o2
n-0.13462033
v0
v1
o44
o0
o2
n-22.56
o5
o0
v0
n-0.9574
n2
o2
n-945.64
o5
o0
v1
n-1.05897
n2
o2
o2
o2
n0.07749072839
v0
o5
v1
n4.0
o44
o0
o2
n-22.68
o5
o0
v0
n-0.9576
n2
o2
n-993.85
o5
o0
v1
n-1.05277
n2
o2
o2
o2
n-1.6909858
v0
o5
v1
n4.3315
o44
o0
o2
n-2.8452
o5
o0
v0
n-0.4478
n2
o3
n1
o0
o2
n0.3696
o5
o0
v1
n-1.108
n2
n1.244
o2
o2
o2
n0.93739074
v0
o5
v1
n4.015
o44
o0
o2
n-2.8342
o5
o0
v0
n-0.44689
n2
o3
n1
o0
o2
n0.2962
o5
o0
v1
n-1.313
n2
n0.6826
O6 0
o54
34
o2
n1.7395866
o5
v1
n0.382
o2
o2
n0.26901069
o5
v0
n2.0
o5
v1
n0.677
o2
o2
n2.4817542
o5
v1
n3.1
o44
o0
o2
n-2.0915
o5
o0
v1
n-1.083
n2.0
o2
n-0.8175
o5
o0
v0
n-0.7527
n2.0
o2
o2
n0.024528928
v1
o5
v0
n3.0
o2
o2
n0.07749072839
o5
v1
n4.0
o44
o0
o2
n-22.68
o5
o0
v0
n-0.9576
n2.0
o2
n-993.85
o5
o0
v1
n-1.05277
n2.0
o2
o2
n6.212578
o5
v1
n0.655
o44
o0
o2
n-1.708
o5
o0
v1
n-1.036
n2.0
o2
n-0.42776
o5
o0
v0
n0.0726
n2.0
o2
o2
n0.93739074
o5
v1
n4.015
o44
o0
o5
o0
o2
n0.2962
o5
o0
v1
n-1.313
n2.0
n0.6826
n-1.0
o2
n-2.8342
o5
o0
v0
n-0.44689
n2.0
o2
o2
n-1.6909858
o5
v1
n4.3315
o44
o0
o5
o0
o2
n0.3696
o5
o0
v1
n-1.108
n2.0
n1.244
n-1.0
o2
n-2.8452
o5
o0
v0
n-0.4478
n2.0
o2
o2
n-3.7749264
o5
v1
n0.643
o44
o0
o2
n-1.1
o5
o0
v1
n-0.934
n2.0
o2
n-0.3574
o5
o0
v0
n0.243
n2.0
o2
o2
n-0.13462033
v1
o44
o0
o2
n-22.56
o5
o0
v0
n-0.9574
n2.0
o2
n-945.64
o5
o0
v1
n-1.05897
n2.0
o2
o2
n-0.60255106
v0
v1
o2
o2
n-5.7844357
o5
v1
n1.3
o44
o0
o2
n-1.4865
o5
o0
v1
n-1.2777
n2.0
o2
n-0.6424
o5
o0
v0
n0.1274
n2.0
o2
o2
o2
n0.02987394
v0
o5
v1
n1.623
o44
o0
o2
n-0.488
o5
o0
v1
n-0.928
n2.0
o2
n-0.91
o5
o0
v0
n-2.2
n2.0
o2
o2
o2
n0.0018763043999999998
o5
v0
n2.0
o5
v1
n1.13
o44
o0
o2
n-1.21
o5
o0
v0
n-2.96
n2.0
o2
n-0.85
o5
o0
v1
n-0.919
n2.0
o2
o2
o2
n0.27026327
o5
v0
n3.0
o5
v1
n1.063
o44
o2
n-1.0
v0
o2
o2
o2
n0.152774074
o5
v0
n4.0
o5
v1
n2.915
o44
o16
o5
v0
n2.0
o2
o2
o2
n1.68127926
o5
v0
n3.0
o5
v1
n3.51
o44
o16
o5
v0
n2.0
o2
o2
o2
n-4.7478336
v0
o5
v1
n1.4395
o44
o0
o2
n-2.43
o5
o0
v1
n-1.2906
n2.0
o2
n-0.7995
o5
o0
v0
n-0.57
n2.0
o2
o2
o2
n-0.22916111100000003
o5
v0
n2.0
o5
v1
n2.915
o44
o16
o5
v0
n2.0
o2
o2
o2
n-0.8107898099999999
o5
v0
n2.0
o5
v1
n1.063
o44
o2
n-1.0
v0
o2
o2
o2
n-1.68127926
v0
o5
v1
n3.51
o44
o16
o5
v0
n2.0
o2
o2
o2
n-5.2077e-05
o5
v0
n2.0
o5
v1
n4.5
o44
o0
o2
n-4.14
o5
o0
v0
n-3.02
n2.0
o2
n-1.14
o5
o0
v1
n-1.852
n2.0
o2
o2
o2
o2
n0.01493697
o5
v0
n2.0
o5
v1
n1.623
o0
o2
n-1.82
v0
n4.0040000000000004
o44
o0
o2
n-0.488
o5
o0
v1
n-0.928
n2.0
o2
n-0.91
o5
o0
v0
n-2.2
n2.0
o2
o2
o2
o2
n2.4817542
v0
o5
v1
n3.1
o0
o2
n-1.635
v0
n1.2306645
o44
o0
o2
n-2.0915
o5
o0
v1
n-1.083
n2.0
o2
n-0.8175
o5
o0
v0
n-0.7527
n2.0
o2
o2
o2
o2
n0.07749072839
v0
o5
v1
n4.0
o0
o2
n-45.36
v0
n43.436735999999996
o44
o0
o2
n-22.68
o5
o0
v0
n-0.9576
n2.0
o2
n-993.85
o5
o0
v1
n-1.05277
n2.0
o2
o2
o2
o2
n0.0006254348
o5
v0
n3.0
o5
v1
n1.13
o0
o2
n-2.42
v0
n7.1632
o44
o0
o2
n-1.21
o5
o0
v0
n-2.96
n2.0
o2
n-0.85
o5
o0
v1
n-0.919
n2.0
o2
o2
o2
o2
n6.212578
v0
o5
v1
n0.655
o0
o2
n-0.85552
v0
n-0.06211075199999999
o44
o0
o2
n-1.708
o5
o0
v1
n-1.036
n2.0
o2
n-0.42776
o5
o0
v0
n0.0726
n2.0
o2
o2
o2
o2
n0.93739074
v0
o5
v1
n4.015
o0
o2
n-5.6684
v0
n2.533151276
o44
o0
o5
o0
o2
n0.2962
o5
o0
v1
n-1.313
n2.0
n0.6826
n-1.0
o2
n-2.8342
o5
o0
v0
n-0.44689
n2.0
o2
o2
o2
o2
n-1.6909858
v0
o5
v1
n4.3315
o0
o2
n-5.6904
v0
n2.54816112
o44
o0
o5
o0
o2
n0.3696
o5
o0
v1
n-1.108
n2.0
n1.244
n-1.0
o2
n-2.8452
o5
o0
v0
n-0.4478
n2.0
o2
o2
o2
o2
n-2.3739168
o5
v0
n2.0
o5
v1
n1.4395
o0
o2
n-1.599
v0
n0.91143
o44
o0
o2
n-2.43
o5
o0
v1
n-1.2906
n2.0
o2
n-0.7995
o5
o0
v0
n-0.57
n2.0
o2
o2
o2
o2
n-3.7749264
v0
o5
v1
n0.643
o0
o2
n-0.7148
v0
n-0.1736964
o44
o0
o2
n-1.1
o5
o0
v1
n-0.934
n2.0
o2
n-0.3574
o5
o0
v0
n0.243
n2.0
o2
o2
o2
o2
n-0.13462033
v0
v1
o0
o2
n-45.12
v0
n43.197888
o44
o0
o2
n-22.56
o5
o0
v0
n-0.9574
n2.0
o2
n-945.64
o5
o0
v1
n-1.05897
n2.0
o2
o2
o2
o2
n-1.7359e-05
o5
v0
n3.0
o5
v1
n4.5
o0
o2
n-8.28
v0
n25.005599999999998
o44
o0
o2
n-4.14
o5
o0
v0
n-3.02
n2.0
o2
n-1.14
o5
o0
v1
n-1.852
n2.0
o2
o2
o2
o2
n-5.7844357
v0
o5
v1
n1.3
o0
o2
n-1.2848
v0
n-0.16368352
o44
o0
o2
n-1.4865
o5
o0
v1
n-1.2777
n2.0
o2
n-0.6424
o5
o0
v0
n0.1274
n2.0
O7 0
o54
63
o2
o2
n0.53802138
o5
v1
n0.677
v0
o2
o2
n0.02987394
o5
v1
n1.623
o44
o0
o2
n-0.488
o5
o0
v1
n-0.928
n2.0
o2
n-0.91
o5
o0
v0
n-2.2
n2.0
o2
o2
n0.07358678399999999
v1
o5
v0
n2.0
o2
o2
n-4.7478336
o5
v1
n1.4395
o44
o0
o2
n-2.43
o5
o0
v1
n-1.2906
n2.0
o2
n-0.7995
o5
o0
v0
n-0.57
n2.0
o2
o2
n-1.68127926
o5
v1
n3.51
o44
o16
o5
v0
n2.0
o2
o2
o2
n2.6983173907199998
v0
o5
v1
n0.643
o44
o0
o2
n-1.1
o5
o0
v1
n-0.934
n2.0
o2
n-0.3574
o5
o0
v0
n0.243
n2.0
o2
o2
o2
n2.6983173907199998
o5
v1
n0.643
o0
v0
n0.243
o44
o0
o2
n-1.1
o5
o0
v1
n-0.934
n2.0
o2
n-0.3574
o5
o0
v0
n0.243
n2.0
o2
o2
o2
n9.622385596320001
v0
o5
v1
n4.3315
o44
o0
o5
o0
o2
n0.3696
o5
o0
v1
n-1.108
n2.0
n1.244
n-1.0
o2
n-2.8452
o5
o0
v0
n-0.4478
n2.0
o2
o2
o2
n9.622385596320001
o5
v1
n4.3315
o0
v0
n-0.4478
o44
o0
o5
o0
o2
n0.3696
o5
o0
v1
n-1.108
n2.0
n1.244
n-1.0
o2
n-2.8452
o5
o0
v0
n-0.4478
n2.0
o2
o2
o2
n3.7958929632
o5
v1
n1.4395
o5
v0
n2.0
o44
o0
o2
n-2.43
o5
o0
v1
n-1.2906
n2.0
o2
n-0.7995
o5
o0
v0
n-0.57
n2.0
o2
o2
o2
n1.069418518
o5
v1
n2.915
o5
v0
n3.0
o44
o16
o5
v0
n2.0
o2
o2
o2
n0.0037526087999999996
o5
v1
n1.13
v0
o44
o0
o2
n-1.21
o5
o0
v0
n-2.96
n2.0
o2
n-0.85
o5
o0
v1
n-0.919
n2.0
o2
o2
o2
n2.4817542
o5
v1
n3.1
o0
o2
n-1.635
v0
n1.2306645
o44
o0
o2
n-2.0915
o5
o0
v1
n-1.083
n2.0
o2
n-0.8175
o5
o0
v0
n-0.7527
n2.0
o2
o2
o2
n1.6215796199999999
o5
v1
n1.063
o5
v0
n2.0
o44
o2
n-1.0
v0
o2
o2
o2
n8.406396299999999
o5
v1
n3.51
o5
v0
n2.0
o44
o16
o5
v0
n2.0
o2
o2
o2
n0.00014373252
o5
v1
n4.5
o5
v0
n3.0
o44
o0
o2
n-4.14
o5
o0
v0
n-3.02
n2.0
o2
n-1.14
o5
o0
v1
n-1.852
n2.0
o2
o2
o2
n0.07749072839
o5
v1
n4.0
o0
o2
n-45.36
v0
n43.436735999999996
o44
o0
o2
n-22.68
o5
o0
v0
n-0.9576
n2.0
o2
n-993.85
o5
o0
v1
n-1.05277
n2.0
o2
o2
o2
n6.0740692896
v1
v0
o44
o0
o2
n-22.56
o5
o0
v0
n-0.9574
n2.0
o2
n-945.64
o5
o0
v1
n-1.05897
n2.0
o2
o2
o2
n6.0740692896
v1
o0
v0
n-0.9574
o44
o0
o2
n-22.56
o5
o0
v0
n-0.9574
n2.0
o2
n-945.64
o5
o0
v1
n-1.05897
n2.0
o2
o2
o2
n6.212578
o5
v1
n0.655
o0
o2
n-0.85552
v0
n-0.06211075199999999
o44
o0
o2
n-1.708
o5
o0
v1
n-1.036
n2.0
o2
n-0.42776
o5
o0
v0
n0.0726
n2.0
o2
o2
o2
n7.4318429873600005
v0
o5
v1
n1.3
o44
o0
o2
n-1.4865
o5
o0
v1
n-1.2777
n2.0
o2
n-0.6424
o5
o0
v0
n0.1274
n2.0
o2
o2
o2
n7.4318429873600005
o5
v1
n1.3
o0
v0
n0.1274
o44
o0
o2
n-1.4865
o5
o0
v1
n-1.2777
n2.0
o2
n-0.6424
o5
o0
v0
n0.1274
n2.0
o2
o2
o2
n0.93739074
o5
v1
n4.015
o0
o2
n-5.6684
v0
n2.533151276
o44
o0
o5
o0
o2
n0.2962
o5
o0
v1
n-1.313
n2.0
n0.6826
n-1.0
o2
n-2.8342
o5
o0
v0
n-0.44689
n2.0
o2
o2
o2
n-3.5149794397704
v0
o5
v1
n4.0
o44
o0
o2
n-22.68
o5
o0
v0
n-0.9576
n2.0
o2
n-993.85
o5
o0
v1
n-1.05277
n2.0
o2
o2
o2
n-3.5149794397704
o5
v1
n4.0
o0
v0
n-0.9576
o44
o0
o2
n-22.68
o5
o0
v0
n-0.9576
n2.0
o2
n-993.85
o5
o0
v1
n-1.05277
n2.0
o2
o2
o2
n-1.6909858
o5
v1
n4.3315
o0
o2
n-5.6904
v0
n2.54816112
o44
o0
o5
o0
o2
n0.3696
o5
o0
v1
n-1.108
n2.0
n1.244
n-1.0
o2
n-2.8452
o5
o0
v0
n-0.4478
n2.0
o2
o2
o2
n-5.314984730559999
v0
o5
v1
n0.655
o44
o0
o2
n-1.708
o5
o0
v1
n-1.036
n2.0
o2
n-0.42776
o5
o0
v0
n0.0726
n2.0
o2
o2
o2
n-5.314984730559999
o5
v1
n0.655
o0
v0
n0.0726
o44
o0
o2
n-1.708
o5
o0
v1
n-1.036
n2.0
o2
n-0.42776
o5
o0
v0
n0.0726
n2.0
o2
o2
o2
n-0.45832222200000006
o5
v1
n2.915
v0
o44
o16
o5
v0
n2.0
o2
o2
o2
n-3.7749264
o5
v1
n0.643
o0
o2
n-0.7148
v0
n-0.1736964
o44
o0
o2
n-1.1
o5
o0
v1
n-0.934
n2.0
o2
n-0.3574
o5
o0
v0
n0.243
n2.0
o2
o2
o2
n-4.057668117
v0
o5
v1
n3.1
o44
o0
o2
n-2.0915
o5
o0
v1
n-1.083
n2.0
o2
n-0.8175
o5
o0
v0
n-0.7527
n2.0
o2
o2
o2
n-4.057668117
o5
v1
n3.1
o0
v0
n-0.7527
o44
o0
o2
n-2.0915
o5
o0
v1
n-1.083
n2.0
o2
n-0.8175
o5
o0
v0
n-0.7527
n2.0
o2
o2
o2
n-0.13462033
v1
o0
o2
n-45.12
v0
n43.197888
o44
o0
o2
n-22.56
o5
o0
v0
n-0.9574
n2.0
o2
n-945.64
o5
o0
v1
n-1.05897
n2.0
o2
o2
o2
n-1.6215796199999999
o5
v1
n1.063
v0
o44
o2
n-1.0
v0
o2
o2
o2
n-0.027185285400000002
o5
v1
n1.623
o5
v0
n2.0
o44
o0
o2
n-0.488
o5
o0
v1
n-0.928
n2.0
o2
n-0.91
o5
o0
v0
n-2.2
n2.0
o2
o2
o2
n-0.27026327
o5
v1
n1.063
o5
v0
n3.0
o44
o2
n-1.0
v0
o2
o2
o2
n-0.305548148
o5
v1
n2.915
o5
v0
n5.0
o44
o16
o5
v0
n2.0
o2
o2
o2
n-5.313505670616
v0
o5
v1
n4.015
o44
o0
o5
o0
o2
n0.2962
o5
o0
v1
n-1.313
n2.0
n0.6826
n-1.0
o2
n-2.8342
o5
o0
v0
n-0.44689
n2.0
o2
o2
o2
n-5.313505670616
o5
v1
n4.015
o0
v0
n-0.44689
o44
o0
o5
o0
o2
n0.2962
o5
o0
v1
n-1.313
n2.0
n0.6826
n-1.0
o2
n-2.8342
o5
o0
v0
n-0.44689
n2.0
o2
o2
o2
n-5.7844357
o5
v1
n1.3
o0
o2
n-1.2848
v0
n-0.16368352
o44
o0
o2
n-1.4865
o5
o0
v1
n-1.2777
n2.0
o2
n-0.6424
o5
o0
v0
n0.1274
n2.0
o2
o2
o2
n-0.0015135522159999998
o5
v1
n1.13
o5
v0
n3.0
o44
o0
o2
n-1.21
o5
o0
v0
n-2.96
n2.0
o2
n-0.85
o5
o0
v1
n-0.919
n2.0
o2
o2
o2
n-3.36255852
o5
v1
n3.51
o5
v0
n4.0
o44
o16
o5
v0
n2.0
o2
o2
o2
n-0.000104154
o5
v1
n4.5
v0
o44
o0
o2
n-4.14
o5
o0
v0
n-3.02
n2.0
o2
n-1.14
o5
o0
v1
n-1.852
n2.0
o2
o2
o2
o2
n7.5917859264
v0
o5
v1
n1.4395
o0
v0
n-0.57
o44
o0
o2
n-2.43
o5
o0
v1
n-1.2906
n2.0
o2
n-0.7995
o5
o0
v0
n-0.57
n2.0
o2
o2
o2
o2
n0.02987394
o5
v1
n1.623
v0
o0
o2
n-1.82
v0
n4.0040000000000004
o44
o0
o2
n-0.488
o5
o0
v1
n-0.928
n2.0
o2
n-0.91
o5
o0
v0
n-2.2
n2.0
o2
o2
o2
o2
n0.0018763043999999998
o5
v1
n1.13
o5
v0
n2.0
o0
o2
n-2.42
v0
n7.1632
o44
o0
o2
n-1.21
o5
o0
v0
n-2.96
n2.0
o2
n-0.85
o5
o0
v1
n-0.919
n2.0
o2
o2
o2
o2
n0.00043119756
o5
v1
n4.5
o5
v0
n2.0
o0
v0
n-3.02
o44
o0
o2
n-4.14
o5
o0
v0
n-3.02
n2.0
o2
n-1.14
o5
o0
v1
n-1.852
n2.0
o2
o2
o2
o2
n-4.7478336
o5
v1
n1.4395
v0
o0
o2
n-1.599
v0
n0.91143
o44
o0
o2
n-2.43
o5
o0
v1
n-1.2906
n2.0
o2
n-0.7995
o5
o0
v0
n-0.57
n2.0
o2
o2
o2
o2
n-0.004540656648
o5
v1
n1.13
o5
v0
n2.0
o0
v0
n-2.96
o44
o0
o2
n-1.21
o5
o0
v0
n-2.96
n2.0
o2
n-0.85
o5
o0
v1
n-0.919
n2.0
o2
o2
o2
o2
n-0.054370570800000004
v0
o5
v1
n1.623
o0
v0
n-2.2
o44
o0
o2
n-0.488
o5
o0
v1
n-0.928
n2.0
o2
n-0.91
o5
o0
v0
n-2.2
n2.0
o2
o2
o2
o2
n-5.2077e-05
o5
v1
n4.5
o5
v0
n2.0
o0
o2
n-8.28
v0
n25.005599999999998
o44
o0
o2
n-4.14
o5
o0
v0
n-3.02
n2.0
o2
n-1.14
o5
o0
v1
n-1.852
n2.0
o2
o2
o2
o2
o2
n2.6983173907199998
v0
o5
v1
n0.643
o0
v0
n0.243
o0
o2
n-0.7148
v0
n-0.1736964
o44
o0
o2
n-1.1
o5
o0
v1
n-0.934
n2.0
o2
n-0.3574
o5
o0
v0
n0.243
n2.0
o2
o2
o2
o2
o2
n9.622385596320001
v0
o5
v1
n4.3315
o0
v0
n-0.4478
o0
o2
n-5.6904
v0
n2.54816112
o44
o0
o5
o0
o2
n0.3696
o5
o0
v1
n-1.108
n2.0
n1.244
n-1.0
o2
n-2.8452
o5
o0
v0
n-0.4478
n2.0
o2
o2
o2
o2
o2
n3.7958929632
o5
v1
n1.4395
o5
v0
n2.0
o0
v0
n-0.57
o0
o2
n-1.599
v0
n0.91143
o44
o0
o2
n-2.43
o5
o0
v1
n-1.2906
n2.0
o2
n-0.7995
o5
o0
v0
n-0.57
n2.0
o2
o2
o2
o2
o2
n0.00014373252
o5
v1
n4.5
o5
v0
n3.0
o0
v0
n-3.02
o0
o2
n-8.28
v0
n25.005599999999998
o44
o0
o2
n-4.14
o5
o0
v0
n-3.02
n2.0
o2
n-1.14
o5
o0
v1
n-1.852
n2.0
o2
o2
o2
o2
o2
n6.0740692896
v1
v0
o0
v0
n-0.9574
o0
o2
n-45.12
v0
n43.197888
o44
o0
o2
n-22.56
o5
o0
v0
n-0.9574
n2.0
o2
n-945.64
o5
o0
v1
n-1.05897
n2.0
o2
o2
o2
o2
o2
n7.4318429873600005
v0
o5
v1
n1.3
o0
v0
n0.1274
o0
o2
n-1.2848
v0
n-0.16368352
o44
o0
o2
n-1.4865
o5
o0
v1
n-1.2777
n2.0
o2
n-0.6424
o5
o0
v0
n0.1274
n2.0
o2
o2
o2
o2
o2
n-3.5149794397704
v0
o5
v1
n4.0
o0
v0
n-0.9576
o0
o2
n-45.36
v0
n43.436735999999996
o44
o0
o2
n-22.68
o5
o0
v0
n-0.9576
n2.0
o2
n-993.85
o5
o0
v1
n-1.05277
n2.0
o2
o2
o2
o2
o2
n-5.314984730559999
v0
o5
v1
n0.655
o0
v0
n0.0726
o0
o2
n-0.85552
v0
n-0.06211075199999999
o44
o0
o2
n-1.708
o5
o0
v1
n-1.036
n2.0
o2
n-0.42776
o5
o0
v0
n0.0726
n2.0
o2
o2
o2
o2
o2
n-4.057668117
v0
o5
v1
n3.1
o0
v0
n-0.7527
o0
o2
n-1.635
v0
n1.2306645
o44
o0
o2
n-2.0915
o5
o0
v1
n-1.083
n2.0
o2
n-0.8175
o5
o0
v0
n-0.7527
n2.0
o2
o2
o2
o2
o2
n-0.027185285400000002
o5
v1
n1.623
o5
v0
n2.0
o0
v0
n-2.2
o0
o2
n-1.82
v0
n4.0040000000000004
o44
o0
o2
n-0.488
o5
o0
v1
n-0.928
n2.0
o2
n-0.91
o5
o0
v0
n-2.2
n2.0
o2
o2
o2
o2
o2
n-5.313505670616
v0
o5
v1
n4.015
o0
v0
n-0.44689
o0
o2
n-5.6684
v0
n2.533151276
o44
o0
o5
o0
o2
n0.2962
o5
o0
v1
n-1.313
n2.0
n0.6826
n-1.0
o2
n-2.8342
o5
o0
v0
n-0.44689
n2.0
o2
o2
o2
o2
o2
n-0.0015135522159999998
o5
v1
n1.13
o5
v0
n3.0
o0
v0
n-2.96
o0
o2
n-2.42
v0
n7.1632
o44
o0
o2
n-1.21
o5
o0
v0
n-2.96
n2.0
o2
n-0.85
o5
o0
v1
n-0.919
n2.0
O8 0
o54
31
o2
n0.006132232
o5
v0
n4.0
o2
n-0.30127553
o5
v0
n2.0
o2
o2
n0.06070674571000001
o5
v0
n3.0
o5
v1
n-0.32299999999999995
o2
o2
n0.6645220812
v0
o5
v1
n-0.618
o2
o2
n-0.13462033
v0
o44
o0
o2
n-22.56
o5
o0
v0
n-0.9574
n2.0
o2
n-945.64
o5
o0
v1
n-1.05897
n2.0
o2
o2
o2
n0.0007067413239999999
o5
v0
n3.0
o5
v1
n0.1299999999999999
o44
o0
o2
n-1.21
o5
o0
v0
n-2.96
n2.0
o2
n-0.85
o5
o0
v1
n-0.919
n2.0
o2
o2
o2
n0.024242702310000003
o5
v0
n2.0
o5
v1
n0.623
o44
o0
o2
n-0.488
o5
o0
v1
n-0.928
n2.0
o2
n-0.91
o5
o0
v0
n-2.2
n2.0
o2
o2
o2
n3.7636238210999995
v0
o5
v1
n3.0149999999999997
o44
o0
o5
o0
o2
n0.2962
o5
o0
v1
n-1.313
n2.0
n0.6826
n-1.0
o2
n-2.8342
o5
o0
v0
n-0.44689
n2.0
o2
o2
o2
n7.69343802
v0
o5
v1
n2.1
o44
o0
o2
n-2.0915
o5
o0
v1
n-1.083
n2.0
o2
n-0.8175
o5
o0
v0
n-0.7527
n2.0
o2
o2
o2
n4.06923859
v0
o5
v1
n-0.345
o44
o0
o2
n-1.708
o5
o0
v1
n-1.036
n2.0
o2
n-0.42776
o5
o0
v0
n0.0726
n2.0
o2
o2
o2
n0.30996291356
v0
o5
v1
n3.0
o44
o0
o2
n-22.68
o5
o0
v0
n-0.9576
n2.0
o2
n-993.85
o5
o0
v1
n-1.05277
n2.0
o2
o2
o2
n-0.28728985601
o5
v0
n3.0
o5
v1
n0.06299999999999994
o44
o2
n-1.0
v0
o2
o2
o2
n-2.4272776752
v0
o5
v1
n-0.357
o44
o0
o2
n-1.1
o5
o0
v1
n-0.934
n2.0
o2
n-0.3574
o5
o0
v0
n0.243
n2.0
o2
o2
o2
n-7.81155e-05
o5
v0
n3.0
o5
v1
n3.5
o44
o0
o2
n-4.14
o5
o0
v0
n-3.02
n2.0
o2
n-1.14
o5
o0
v1
n-1.852
n2.0
o2
o2
o2
n-7.519766410000001
v0
o5
v1
n0.30000000000000004
o44
o0
o2
n-1.4865
o5
o0
v1
n-1.2777
n2.0
o2
n-0.6424
o5
o0
v0
n0.1274
n2.0
o2
o2
o2
n-2.9506451012999997
o5
v0
n2.0
o5
v1
n2.51
o44
o16
o5
v0
n2.0
o2
o2
o2
n-3.4172532336
o5
v0
n2.0
o5
v1
n0.4395
o44
o0
o2
n-2.43
o5
o0
v1
n-1.2906
n2.0
o2
n-0.7995
o5
o0
v0
n-0.57
n2.0
o2
o2
o2
n-0.22266821285500002
o5
v0
n3.0
o5
v1
n1.915
o44
o16
o5
v0
n2.0
o2
o2
o2
n-7.3245049927000005
v0
o5
v1
n3.3315
o44
o0
o5
o0
o2
n0.3696
o5
o0
v1
n-1.108
n2.0
n1.244
n-1.0
o2
n-2.8452
o5
o0
v0
n-0.4478
n2.0
o2
o2
o2
o2
n0.01493697
o5
v0
n2.0
o5
v1
n1.623
o0
o2
n-0.976
v1
n0.905728
o44
o0
o2
n-0.488
o5
o0
v1
n-0.928
n2.0
o2
n-0.91
o5
o0
v0
n-2.2
n2.0
o2
o2
o2
o2
n2.4817542
v0
o5
v1
n3.1
o0
o2
n-4.183
v1
n4.530189
o44
o0
o2
n-2.0915
o5
o0
v1
n-1.083
n2.0
o2
n-0.8175
o5
o0
v0
n-0.7527
n2.0
o2
o2
o2
o2
n0.07749072839
v0
o5
v1
n4.0
o0
o2
n-1987.7
v1
n2092.590929
o44
o0
o2
n-22.68
o5
o0
v0
n-0.9576
n2.0
o2
n-993.85
o5
o0
v1
n-1.05277
n2.0
o2
o2
o2
o2
n0.0006254348
o5
v0
n3.0
o5
v1
n1.13
o0
o2
n-1.7
v1
n1.5623
o44
o0
o2
n-1.21
o5
o0
v0
n-2.96
n2.0
o2
n-0.85
o5
o0
v1
n-0.919
n2.0
o2
o2
o2
o2
n6.212578
v0
o5
v1
n0.655
o0
o2
n-3.416
v1
n3.538976
o44
o0
o2
n-1.708
o5
o0
v1
n-1.036
n2.0
o2
n-0.42776
o5
o0
v0
n0.0726
n2.0
o2
o2
o2
o2
n-2.3739168
o5
v0
n2.0
o5
v1
n1.4395
o0
o2
n-4.86
v1
n6.272316
o44
o0
o2
n-2.43
o5
o0
v1
n-1.2906
n2.0
o2
n-0.7995
o5
o0
v0
n-0.57
n2.0
o2
o2
o2
o2
n-3.7749264
v0
o5
v1
n0.643
o0
o2
n-2.2
v1
n2.0548
o44
o0
o2
n-1.1
o5
o0
v1
n-0.934
n2.0
o2
n-0.3574
o5
o0
v0
n0.243
n2.0
o2
o2
o2
o2
n-0.13462033
v0
v1
o0
o2
n-1891.28
v1
n2002.8087816
o44
o0
o2
n-22.56
o5
o0
v0
n-0.9574
n2.0
o2
n-945.64
o5
o0
v1
n-1.05897
n2.0
o2
o2
o2
o2
n-1.7359e-05
o5
v0
n3.0
o5
v1
n4.5
o0
o2
n-2.28
v1
n4.22256
o44
o0
o2
n-4.14
o5
o0
v0
n-3.02
n2.0
o2
n-1.14
o5
o0
v1
n-1.852
n2.0
o2
o2
o2
o2
n-5.7844357
v0
o5
v1
n1.3
o0
o2
n-2.973
v1
n3.7986021
o44
o0
o2
n-1.4865
o5
o0
v1
n-1.2777
n2.0
o2
n-0.6424
o5
o0
v0
n0.1274
n2.0
o2
o2
o2
o2
o2
n0.93739074
v0
o5
v1
n4.015
o5
o0
o2
n0.2962
o5
o0
v1
n-1.313
n2.0
n0.6826
n-2.0
o0
o2
n-0.5924
v1
n0.7778212
o44
o0
o5
o0
o2
n0.2962
o5
o0
v1
n-1.313
n2.0
n0.6826
n-1.0
o2
n-2.8342
o5
o0
v0
n-0.44689
n2.0
o2
o2
o2
o2
o2
n-1.6909858
v0
o5
v1
n4.3315
o5
o0
o2
n0.3696
o5
o0
v1
n-1.108
n2.0
n1.244
n-2.0
o0
o2
n-0.7392
v1
n0.8190336
o44
o0
o5
o0
o2
n0.3696
o5
o0
v1
n-1.108
n2.0
n1.244
n-1.0
o2
n-2.8452
o5
o0
v0
n-0.4478
n2.0
O9 0
o54
66
o2
o2
n-0.4106746461816
v0
o5
v1
n-1.6179999999999999
o2
o2
n-0.01960827886433
o5
v0
n3.0
o5
v1
n-1.323
o2
o2
o2
n3.957852e-05
o5
v0
n3.0
o5
v1
n4.5
o44
o0
o2
n-4.14
o5
o0
v0
n-3.02
n2.0
o2
n-1.14
o5
o0
v1
n-1.852
n2.0
o2
o2
o2
n0.92988874068
v0
o5
v1
n2.0
o44
o0
o2
n-22.68
o5
o0
v0
n-0.9576
n2.0
o2
n-993.85
o5
o0
v1
n-1.05277
n2.0
o2
o2
o2
n11.347325820616497
v0
o5
v1
n2.0149999999999997
o44
o0
o5
o0
o2
n0.2962
o5
o0
v1
n-1.313
n2.0
n0.6826
n-1.0
o2
n-2.8342
o5
o0
v0
n-0.44689
n2.0
o2
o2
o2
n16.156219842000002
v0
o5
v1
n1.1
o44
o0
o2
n-2.0915
o5
o0
v1
n-1.083
n2.0
o2
n-0.8175
o5
o0
v0
n-0.7527
n2.0
o2
o2
o2
n8.304838080000001
v0
o5
v1
n0.643
o44
o0
o2
n-1.1
o5
o0
v1
n-0.934
n2.0
o2
n-0.3574
o5
o0
v0
n0.243
n2.0
o2
o2
o2
n17.1971273361
v0
o5
v1
n1.3
o44
o0
o2
n-1.4865
o5
o0
v1
n-1.2777
n2.0
o2
n-0.6424
o5
o0
v0
n0.1274
n2.0
o2
o2
o2
n11.537235648000001
o5
v0
n2.0
o5
v1
n1.4395
o44
o0
o2
n-2.43
o5
o0
v1
n-1.2906
n2.0
o2
n-0.7995
o5
o0
v0
n-0.57
n2.0
o2
o2
o2
n9.18763721199999e-05
o5
v0
n3.0
o5
v1
n-0.8700000000000001
o44
o0
o2
n-1.21
o5
o0
v0
n-2.96
n2.0
o2
n-0.85
o5
o0
v1
n-0.919
n2.0
o2
o2
o2
n0.8665381300464
v0
o5
v1
n-1.357
o44
o0
o2
n-1.1
o5
o0
v1
n-0.934
n2.0
o2
n-0.3574
o5
o0
v0
n0.243
n2.0
o2
o2
o2
n0.015103203539130002
o5
v0
n2.0
o5
v1
n-0.377
o44
o0
o2
n-0.488
o5
o0
v1
n-0.928
n2.0
o2
n-0.91
o5
o0
v0
n-2.2
n2.0
o2
o2
o2
n254.60473772240002
v0
v1
o44
o0
o2
n-22.56
o5
o0
v0
n-0.9574
n2.0
o2
n-945.64
o5
o0
v1
n-1.05897
n2.0
o2
o2
o2
n254.60473772240002
v0
o0
v1
n-1.05897
o44
o0
o2
n-22.56
o5
o0
v0
n-0.9574
n2.0
o2
n-945.64
o5
o0
v1
n-1.05897
n2.0
o2
o2
o2
n-0.00106323916
o5
v0
n3.0
o5
v1
n1.13
o44
o0
o2
n-1.21
o5
o0
v0
n-2.96
n2.0
o2
n-0.85
o5
o0
v1
n-0.919
n2.0
o2
o2
o2
n-0.018099260928629984
o5
v0
n3.0
o5
v1
n-0.937
o44
o2
n-1.0
v0
o2
o2
o2
n-1.5018827961671999
o5
v0
n2.0
o5
v1
n-0.5605
o44
o0
o2
n-2.43
o5
o0
v1
n-1.2906
n2.0
o2
n-0.7995
o5
o0
v0
n-0.57
n2.0
o2
o2
o2
n-0.42640962761732504
o5
v0
n3.0
o5
v1
n0.915
o44
o16
o5
v0
n2.0
o2
o2
o2
n-0.01457848272
o5
v0
n2.0
o5
v1
n1.623
o44
o0
o2
n-0.488
o5
o0
v1
n-0.928
n2.0
o2
n-0.91
o5
o0
v0
n-2.2
n2.0
o2
o2
o2
n-0.13462033
v0
o0
o2
n-1891.28
v1
n2002.8087816
o44
o0
o2
n-22.56
o5
o0
v0
n-0.9574
n2.0
o2
n-945.64
o5
o0
v1
n-1.05897
n2.0
o2
o2
o2
n-154.028320820803
v0
o5
v1
n4.0
o44
o0
o2
n-22.68
o5
o0
v0
n-0.9576
n2.0
o2
n-993.85
o5
o0
v1
n-1.05277
n2.0
o2
o2
o2
n-0.00027340425
o5
v0
n3.0
o5
v1
n2.5
o44
o0
o2
n-4.14
o5
o0
v0
n-3.02
n2.0
o2
n-1.14
o5
o0
v1
n-1.852
n2.0
o2
o2
o2
n-2.2559299230000005
v0
o5
v1
n-0.7
o44
o0
o2
n-1.4865
o5
o0
v1
n-1.2777
n2.0
o2
n-0.6424
o5
o0
v0
n0.1274
n2.0
o2
o2
o2
n-10.3811778186
v0
o5
v1
n3.1
o44
o0
o2
n-2.0915
o5
o0
v1
n-1.083
n2.0
o2
n-0.8175
o5
o0
v0
n-0.7527
n2.0
o2
o2
o2
n-21.222166448
v0
o5
v1
n0.655
o44
o0
o2
n-1.708
o5
o0
v1
n-1.036
n2.0
o2
n-0.42776
o5
o0
v0
n0.0726
n2.0
o2
o2
o2
n-1.40388731355
v0
o5
v1
n-1.345
o44
o0
o2
n-1.708
o5
o0
v1
n-1.036
n2.0
o2
n-0.42776
o5
o0
v0
n0.0726
n2.0
o2
o2
o2
n-24.40158838318005
v0
o5
v1
n2.3315
o44
o0
o5
o0
o2
n0.3696
o5
o0
v1
n-1.108
n2.0
n1.244
n-1.0
o2
n-2.8452
o5
o0
v0
n-0.4478
n2.0
o2
o2
o2
n-7.406119204262999
o5
v0
n2.0
o5
v1
n1.5099999999999998
o44
o16
o5
v0
n2.0
o2
o2
o2
o2
n0.0007067413239999999
o5
v0
n3.0
o5
v1
n0.1299999999999999
o0
o2
n-1.7
v1
n1.5623
o44
o0
o2
n-1.21
o5
o0
v0
n-2.96
n2.0
o2
n-0.85
o5
o0
v1
n-0.919
n2.0
o2
o2
o2
o2
n0.024242702310000003
o5
v0
n2.0
o5
v1
n0.623
o0
o2
n-0.976
v1
n0.905728
o44
o0
o2
n-0.488
o5
o0
v1
n-0.928
n2.0
o2
n-0.91
o5
o0
v0
n-2.2
n2.0
o2
o2
o2
o2
n0.00017810333999999998
o5
v0
n3.0
o5
v1
n3.5
o0
v1
n-1.852
o44
o0
o2
n-4.14
o5
o0
v0
n-3.02
n2.0
o2
n-1.14
o5
o0
v1
n-1.852
n2.0
o2
o2
o2
o2
n7.69343802
v0
o5
v1
n2.1
o0
o2
n-4.183
v1
n4.530189
o44
o0
o2
n-2.0915
o5
o0
v1
n-1.083
n2.0
o2
n-0.8175
o5
o0
v0
n-0.7527
n2.0
o2
o2
o2
o2
n4.06923859
v0
o5
v1
n-0.345
o0
o2
n-3.416
v1
n3.538976
o44
o0
o2
n-1.708
o5
o0
v1
n-1.036
n2.0
o2
n-0.42776
o5
o0
v0
n0.0726
n2.0
o2
o2
o2
o2
n16.607850715296
o5
v0
n2.0
o5
v1
n0.4395
o0
v1
n-1.2906
o44
o0
o2
n-2.43
o5
o0
v1
n-1.2906
n2.0
o2
n-0.7995
o5
o0
v0
n-0.57
n2.0
o2
o2
o2
o2
n0.30996291356
v0
o5
v1
n3.0
o0
o2
n-1987.7
v1
n2092.590929
o44
o0
o2
n-22.68
o5
o0
v0
n-0.9576
n2.0
o2
n-993.85
o5
o0
v1
n-1.05277
n2.0
o2
o2
o2
o2
n1.24997670336
v0
o5
v1
n4.3315
o5
o0
o2
n0.3696
o5
o0
v1
n-1.108
n2.0
n1.244
n-2.0
o44
o0
o5
o0
o2
n0.3696
o5
o0
v1
n-1.108
n2.0
n1.244
n-1.0
o2
n-2.8452
o5
o0
v0
n-0.4478
n2.0
o2
o2
o2
o2
n5.340010885440001
v0
o5
v1
n-0.357
o0
v1
n-0.934
o44
o0
o2
n-1.1
o5
o0
v1
n-0.934
n2.0
o2
n-0.3574
o5
o0
v0
n0.243
n2.0
o2
o2
o2
o2
n22.35626553693
v0
o5
v1
n0.30000000000000004
o0
v1
n-1.2777
o44
o0
o2
n-1.4865
o5
o0
v1
n-1.2777
n2.0
o2
n-0.6424
o5
o0
v0
n0.1274
n2.0
o2
o2
o2
o2
n-616.113283283212
v0
o5
v1
n3.0
o0
v1
n-1.05277
o44
o0
o2
n-22.68
o5
o0
v0
n-0.9576
n2.0
o2
n-993.85
o5
o0
v1
n-1.05277
n2.0
o2
o2
o2
o2
n-2.4272776752
v0
o5
v1
n-0.357
o0
o2
n-2.2
v1
n2.0548
o44
o0
o2
n-1.1
o5
o0
v1
n-0.934
n2.0
o2
n-0.3574
o5
o0
v0
n0.243
n2.0
o2
o2
o2
o2
n-0.0012014602507999998
o5
v0
n3.0
o5
v1
n0.1299999999999999
o0
v1
n-0.919
o44
o0
o2
n-1.21
o5
o0
v0
n-2.96
n2.0
o2
n-0.85
o5
o0
v1
n-0.919
n2.0
o2
o2
o2
o2
n-7.81155e-05
o5
v0
n3.0
o5
v1
n3.5
o0
o2
n-2.28
v1
n4.22256
o44
o0
o2
n-4.14
o5
o0
v0
n-3.02
n2.0
o2
n-1.14
o5
o0
v1
n-1.852
n2.0
o2
o2
o2
o2
n-13.900519023440001
v0
o5
v1
n-0.345
o0
v1
n-1.036
o44
o0
o2
n-1.708
o5
o0
v1
n-1.036
n2.0
o2
n-0.42776
o5
o0
v0
n0.0726
n2.0
o2
o2
o2
o2
n-7.519766410000001
v0
o5
v1
n0.30000000000000004
o0
o2
n-2.973
v1
n3.7986021
o44
o0
o2
n-1.4865
o5
o0
v1
n-1.2777
n2.0
o2
n-0.6424
o5
o0
v0
n0.1274
n2.0
o2
o2
o2
o2
n-32.18165123766
v0
o5
v1
n2.1
o0
v1
n-1.083
o44
o0
o2
n-2.0915
o5
o0
v1
n-1.083
n2.0
o2
n-0.8175
o5
o0
v0
n-0.7527
n2.0
o2
o2
o2
o2
n-0.555310274376
v0
o5
v1
n4.015
o5
o0
o2
n0.2962
o5
o0
v1
n-1.313
n2.0
n0.6826
n-2.0
o44
o0
o5
o0
o2
n0.2962
o5
o0
v1
n-1.313
n2.0
n0.6826
n-1.0
o2
n-2.8342
o5
o0
v0
n-0.44689
n2.0
o2
o2
o2
o2
n-0.02366087745456
o5
v0
n2.0
o5
v1
n0.623
o0
v1
n-0.928
o44
o0
o2
n-0.488
o5
o0
v1
n-0.928
n2.0
o2
n-0.91
o5
o0
v0
n-2.2
n2.0
o2
o2
o2
o2
n-3.4172532336
o5
v0
n2.0
o5
v1
n0.4395
o0
o2
n-4.86
v1
n6.272316
o44
o0
o2
n-2.43
o5
o0
v1
n-1.2906
n2.0
o2
n-0.7995
o5
o0
v0
n-0.57
n2.0
o2
o2
o2
o2
o2
n5.41427409060384
v0
o5
v1
n3.3315
o5
o0
o2
n0.3696
o5
o0
v1
n-1.108
n2.0
n1.244
n-2.0
o0
v1
n-1.108
o44
o0
o5
o0
o2
n0.3696
o5
o0
v1
n-1.108
n2.0
n1.244
n-1.0
o2
n-2.8452
o5
o0
v0
n-0.4478
n2.0
o2
o2
o2
o2
o2
n3.957852e-05
o5
v0
n3.0
o5
v1
n4.5
o0
v1
n-1.852
o0
o2
n-2.28
v1
n4.22256
o44
o0
o2
n-4.14
o5
o0
v0
n-3.02
n2.0
o2
n-1.14
o5
o0
v1
n-1.852
n2.0
o2
o2
o2
o2
o2
n3.7636238210999995
v0
o5
v1
n3.0149999999999997
o5
o0
o2
n0.2962
o5
o0
v1
n-1.313
n2.0
n0.6826
n-2.0
o0
o2
n-0.5924
v1
n0.7778212
o44
o0
o5
o0
o2
n0.2962
o5
o0
v1
n-1.313
n2.0
n0.6826
n-1.0
o2
n-2.8342
o5
o0
v0
n-0.44689
n2.0
o2
o2
o2
o2
o2
n8.304838080000001
v0
o5
v1
n0.643
o0
v1
n-0.934
o0
o2
n-2.2
v1
n2.0548
o44
o0
o2
n-1.1
o5
o0
v1
n-0.934
n2.0
o2
n-0.3574
o5
o0
v0
n0.243
n2.0
o2
o2
o2
o2
o2
n17.1971273361
v0
o5
v1
n1.3
o0
v1
n-1.2777
o0
o2
n-2.973
v1
n3.7986021
o44
o0
o2
n-1.4865
o5
o0
v1
n-1.2777
n2.0
o2
n-0.6424
o5
o0
v0
n0.1274
n2.0
o2
o2
o2
o2
o2
n11.537235648000001
o5
v0
n2.0
o5
v1
n1.4395
o0
v1
n-1.2906
o0
o2
n-4.86
v1
n6.272316
o44
o0
o2
n-2.43
o5
o0
v1
n-1.2906
n2.0
o2
n-0.7995
o5
o0
v0
n-0.57
n2.0
o2
o2
o2
o2
o2
n254.60473772240002
v0
v1
o0
v1
n-1.05897
o0
o2
n-1891.28
v1
n2002.8087816
o44
o0
o2
n-22.56
o5
o0
v0
n-0.9574
n2.0
o2
n-945.64
o5
o0
v1
n-1.05897
n2.0
o2
o2
o2
o2
o2
n-0.00106323916
o5
v0
n3.0
o5
v1
n1.13
o0
v1
n-0.919
o0
o2
n-1.7
v1
n1.5623
o44
o0
o2
n-1.21
o5
o0
v0
n-2.96
n2.0
o2
n-0.85
o5
o0
v1
n-0.919
n2.0
o2
o2
o2
o2
o2
n-0.01457848272
o5
v0
n2.0
o5
v1
n1.623
o0
v1
n-0.928
o0
o2
n-0.976
v1
n0.905728
o44
o0
o2
n-0.488
o5
o0
v1
n-0.928
n2.0
o2
n-0.91
o5
o0
v0
n-2.2
n2.0
o2
o2
o2
o2
o2
n-154.028320820803
v0
o5
v1
n4.0
o0
v1
n-1.05277
o0
o2
n-1987.7
v1
n2092.590929
o44
o0
o2
n-22.68
o5
o0
v0
n-0.9576
n2.0
o2
n-993.85
o5
o0
v1
n-1.05277
n2.0
o2
o2
o2
o2
o2
n-2.2295707516196397
v0
o5
v1
n3.0149999999999997
o5
o0
o2
n0.2962
o5
o0
v1
n-1.313
n2.0
n0.6826
n-2.0
o0
v1
n-1.313
o44
o0
o5
o0
o2
n0.2962
o5
o0
v1
n-1.313
n2.0
n0.6826
n-1.0
o2
n-2.8342
o5
o0
v0
n-0.44689
n2.0
o2
o2
o2
o2
o2
n-10.3811778186
v0
o5
v1
n3.1
o0
v1
n-1.083
o0
o2
n-4.183
v1
n4.530189
o44
o0
o2
n-2.0915
o5
o0
v1
n-1.083
n2.0
o2
n-0.8175
o5
o0
v0
n-0.7527
n2.0
o2
o2
o2
o2
o2
n-21.222166448
v0
o5
v1
n0.655
o0
v1
n-1.036
o0
o2
n-3.416
v1
n3.538976
o44
o0
o2
n-1.708
o5
o0
v1
n-1.036
n2.0
o2
n-0.42776
o5
o0
v0
n0.0726
n2.0
o2
o2
o2
o2
o2
n-7.3245049927000005
v0
o5
v1
n3.3315
o5
o0
o2
n0.3696
o5
o0
v1
n-1.108
n2.0
n1.244
n-2.0
o0
o2
n-0.7392
v1
n0.8190336
o44
o0
o5
o0
o2
n0.3696
o5
o0
v1
n-1.108
n2.0
n1.244
n-1.0
o2
n-2.8452
o5
o0
v0
n-0.4478
n2.0
o2
o2
o2
o2
o2
o2
n1.24997670336
v0
o5
v1
n4.3315
o5
o0
o2
n0.3696
o5
o0
v1
n-1.108
n2.0
n1.244
n-4.0
o0
v1
n-1.108
o0
o2
n-0.7392
v1
n0.8190336
o44
o0
o5
o0
o2
n0.3696
o5
o0
v1
n-1.108
n2.0
n1.244
n-1.0
o2
n-2.8452
o5
o0
v0
n-0.4478
n2.0
o2
o2
o2
o2
o2
o2
n2.49995340672
v0
o5
v1
n4.3315
o5
o0
o2
n0.3696
o5
o0
v1
n-1.108
n2.0
n1.244
n-3.0
o0
v1
n-1.108
o0
o2
n-0.7392
v1
n0.8190336
o44
o0
o5
o0
o2
n0.3696
o5
o0
v1
n-1.108
n2.0
n1.244
n-1.0
o2
n-2.8452
o5
o0
v0
n-0.4478
n2.0
o2
o2
o2
o2
o2
o2
n-0.555310274376
v0
o5
v1
n4.015
o5
o0
o2
n0.2962
o5
o0
v1
n-1.313
n2.0
n0.6826
n-4.0
o0
v1
n-1.313
o0
o2
n-0.5924
v1
n0.7778212
o44
o0
o5
o0
o2
n0.2962
o5
o0
v1
n-1.313
n2.0
n0.6826
n-1.0
o2
n-2.8342
o5
o0
v0
n-0.44689
n2.0
o2
o2
o2
o2
o2
o2
n-1.110620548752
v0
o5
v1
n4.015
o5
o0
o2
n0.2962
o5
o0
v1
n-1.313
n2.0
n0.6826
n-3.0
o0
v1
n-1.313
o0
o2
n-0.5924
v1
n0.7778212
o44
o0
o5
o0
o2
n0.2962
o5
o0
v1
n-1.313
n2.0
n0.6826
n-1.0
o2
n-2.8342
o5
o0
v0
n-0.44689
n2.0
O10 0
o0
o54
57
o2
n0.024528928
o5
v0
n3.0
o2
n0.6645220812
o5
v1
n-0.618
o2
n-0.13462033
o44
o0
o2
n-22.56
o5
o0
v0
n-0.9574
n2.0
o2
n-945.64
o5
o0
v1
n-1.05897
n2.0
o2
o2
n3.7636238210999995
o5
v1
n3.0149999999999997
o44
o0
o5
o0
o2
n0.2962
o5
o0
v1
n-1.313
n2.0
n0.6826
n-1.0
o2
n-2.8342
o5
o0
v0
n-0.44689
n2.0
o2
o2
n7.69343802
o5
v1
n2.1
o44
o0
o2
n-2.0915
o5
o0
v1
n-1.083
n2.0
o2
n-0.8175
o5
o0
v0
n-0.7527
n2.0
o2
o2
n4.06923859
o5
v1
n-0.345
o44
o0
o2
n-1.708
o5
o0
v1
n-1.036
n2.0
o2
n-0.42776
o5
o0
v0
n0.0726
n2.0
o2
o2
n0.30996291356
o5
v1
n3.0
o44
o0
o2
n-22.68
o5
o0
v0
n-0.9576
n2.0
o2
n-993.85
o5
o0
v1
n-1.05277
n2.0
o2
o2
n0.18212023713
o5
v1
n-0.32299999999999995
o5
v0
n2.0
o2
o2
n-2.4272776752
o5
v1
n-0.357
o44
o0
o2
n-1.1
o5
o0
v1
n-0.934
n2.0
o2
n-0.3574
o5
o0
v0
n0.243
n2.0
o2
o2
n-7.519766410000001
o5
v1
n0.30000000000000004
o44
o0
o2
n-1.4865
o5
o0
v1
n-1.2777
n2.0
o2
n-0.6424
o5
o0
v0
n0.1274
n2.0
o2
o2
n-7.3245049927000005
o5
v1
n3.3315
o44
o0
o5
o0
o2
n0.3696
o5
o0
v1
n-1.108
n2.0
n1.244
n-1.0
o2
n-2.8452
o5
o0
v0
n-0.4478
n2.0
o2
o2
o2
n0.048485404620000006
v0
o5
v1
n0.623
o44
o0
o2
n-0.488
o5
o0
v1
n-0.928
n2.0
o2
n-0.91
o5
o0
v0
n-2.2
n2.0
o2
o2
o2
n0.0021202239719999997
o5
v1
n0.1299999999999999
o5
v0
n2.0
o44
o0
o2
n-1.21
o5
o0
v0
n-2.96
n2.0
o2
n-0.85
o5
o0
v1
n-0.919
n2.0
o2
o2
o2
n0.28728985601
o5
v1
n0.06299999999999994
o5
v0
n3.0
o44
o2
n-1.0
v0
o2
o2
o2
n8.304838080000001
o5
v1
n0.643
o0
v1
n-0.934
o44
o0
o2
n-1.1
o5
o0
v1
n-0.934
n2.0
o2
n-0.3574
o5
o0
v0
n0.243
n2.0
o2
o2
o2
n17.1971273361
o5
v1
n1.3
o0
v1
n-1.2777
o44
o0
o2
n-1.4865
o5
o0
v1
n-1.2777
n2.0
o2
n-0.6424
o5
o0
v0
n0.1274
n2.0
o2
o2
o2
n5.901290202599999
o5
v1
n2.51
o5
v0
n3.0
o44
o16
o5
v0
n2.0
o2
o2
o2
n0.44533642571000004
o5
v1
n1.915
o5
v0
n4.0
o44
o16
o5
v0
n2.0
o2
o2
o2
n254.60473772240002
v1
o0
v1
n-1.05897
o44
o0
o2
n-22.56
o5
o0
v0
n-0.9574
n2.0
o2
n-945.64
o5
o0
v1
n-1.05897
n2.0
o2
o2
o2
n-0.8618695680299999
o5
v1
n0.06299999999999994
o5
v0
n2.0
o44
o2
n-1.0
v0
o2
o2
o2
n-0.13462033
v0
o0
o2
n-45.12
v0
n43.197888
o44
o0
o2
n-22.56
o5
o0
v0
n-0.9574
n2.0
o2
n-945.64
o5
o0
v1
n-1.05897
n2.0
o2
o2
o2
n-154.028320820803
o5
v1
n4.0
o0
v1
n-1.05277
o44
o0
o2
n-22.68
o5
o0
v0
n-0.9576
n2.0
o2
n-993.85
o5
o0
v1
n-1.05277
n2.0
o2
o2
o2
n-10.3811778186
o5
v1
n3.1
o0
v1
n-1.083
o44
o0
o2
n-2.0915
o5
o0
v1
n-1.083
n2.0
o2
n-0.8175
o5
o0
v0
n-0.7527
n2.0
o2
o2
o2
n-21.222166448
o5
v1
n0.655
o0
v1
n-1.036
o44
o0
o2
n-1.708
o5
o0
v1
n-1.036
n2.0
o2
n-0.42776
o5
o0
v0
n0.0726
n2.0
o2
o2
o2
n-0.6680046385650001
o5
v1
n1.915
o5
v0
n2.0
o44
o16
o5
v0
n2.0
o2
o2
o2
n-5.901290202599999
v0
o5
v1
n2.51
o44
o16
o5
v0
n2.0
o2
o2
o2
n-6.8345064672
v0
o5
v1
n0.4395
o44
o0
o2
n-2.43
o5
o0
v1
n-1.2906
n2.0
o2
n-0.7995
o5
o0
v0
n-0.57
n2.0
o2
o2
o2
n-0.0002343465
o5
v1
n3.5
o5
v0
n2.0
o44
o0
o2
n-4.14
o5
o0
v0
n-3.02
n2.0
o2
n-1.14
o5
o0
v1
n-1.852
n2.0
o2
o2
o2
o2
n0.0007067413239999999
o5
v1
n0.1299999999999999
o5
v0
n3.0
o0
o2
n-2.42
v0
n7.1632
o44
o0
o2
n-1.21
o5
o0
v0
n-2.96
n2.0
o2
n-0.85
o5
o0
v1
n-0.919
n2.0
o2
o2
o2
o2
n0.024242702310000003
o5
v1
n0.623
o5
v0
n2.0
o0
o2
n-1.82
v0
n4.0040000000000004
o44
o0
o2
n-0.488
o5
o0
v1
n-0.928
n2.0
o2
n-0.91
o5
o0
v0
n-2.2
n2.0
o2
o2
o2
o2
n3.7636238210999995
v0
o5
v1
n3.0149999999999997
o0
o2
n-5.6684
v0
n2.533151276
o44
o0
o5
o0
o2
n0.2962
o5
o0
v1
n-1.313
n2.0
n0.6826
n-1.0
o2
n-2.8342
o5
o0
v0
n-0.44689
n2.0
o2
o2
o2
o2
n7.69343802
v0
o5
v1
n2.1
o0
o2
n-1.635
v0
n1.2306645
o44
o0
o2
n-2.0915
o5
o0
v1
n-1.083
n2.0
o2
n-0.8175
o5
o0
v0
n-0.7527
n2.0
o2
o2
o2
o2
n4.06923859
v0
o5
v1
n-0.345
o0
o2
n-0.85552
v0
n-0.06211075199999999
o44
o0
o2
n-1.708
o5
o0
v1
n-1.036
n2.0
o2
n-0.42776
o5
o0
v0
n0.0726
n2.0
o2
o2
o2
o2
n0.30996291356
v0
o5
v1
n3.0
o0
o2
n-45.36
v0
n43.436735999999996
o44
o0
o2
n-22.68
o5
o0
v0
n-0.9576
n2.0
o2
n-993.85
o5
o0
v1
n-1.05277
n2.0
o2
o2
o2
o2
n1.24997670336
o5
v1
n4.3315
o5
o0
o2
n0.3696
o5
o0
v1
n-1.108
n2.0
n1.244
n-2.0
o0
v1
n-1.108
o44
o0
o5
o0
o2
n0.3696
o5
o0
v1
n-1.108
n2.0
n1.244
n-1.0
o2
n-2.8452
o5
o0
v0
n-0.4478
n2.0
o2
o2
o2
o2
n23.074471296000002
v0
o5
v1
n1.4395
o0
v1
n-1.2906
o44
o0
o2
n-2.43
o5
o0
v1
n-1.2906
n2.0
o2
n-0.7995
o5
o0
v0
n-0.57
n2.0
o2
o2
o2
o2
n0.00011873555999999999
o5
v1
n4.5
o5
v0
n2.0
o0
v1
n-1.852
o44
o0
o2
n-4.14
o5
o0
v0
n-3.02
n2.0
o2
n-1.14
o5
o0
v1
n-1.852
n2.0
o2
o2
o2
o2
n-0.0031897174799999997
o5
v1
n1.13
o5
v0
n2.0
o0
v1
n-0.919
o44
o0
o2
n-1.21
o5
o0
v0
n-2.96
n2.0
o2
n-0.85
o5
o0
v1
n-0.919
n2.0
o2
o2
o2
o2
n-0.02915696544
v0
o5
v1
n1.623
o0
v1
n-0.928
o44
o0
o2
n-0.488
o5
o0
v1
n-0.928
n2.0
o2
n-0.91
o5
o0
v0
n-2.2
n2.0
o2
o2
o2
o2
n-2.4272776752
v0
o5
v1
n-0.357
o0
o2
n-0.7148
v0
n-0.1736964
o44
o0
o2
n-1.1
o5
o0
v1
n-0.934
n2.0
o2
n-0.3574
o5
o0
v0
n0.243
n2.0
o2
o2
o2
o2
n-7.81155e-05
o5
v1
n3.5
o5
v0
n3.0
o0
o2
n-8.28
v0
n25.005599999999998
o44
o0
o2
n-4.14
o5
o0
v0
n-3.02
n2.0
o2
n-1.14
o5
o0
v1
n-1.852
n2.0
o2
o2
o2
o2
n-7.519766410000001
v0
o5
v1
n0.30000000000000004
o0
o2
n-1.2848
v0
n-0.16368352
o44
o0
o2
n-1.4865
o5
o0
v1
n-1.2777
n2.0
o2
n-0.6424
o5
o0
v0
n0.1274
n2.0
o2
o2
o2
o2
n-0.555310274376
o5
v1
n4.015
o5
o0
o2
n0.2962
o5
o0
v1
n-1.313
n2.0
n0.6826
n-2.0
o0
v1
n-1.313
o44
o0
o5
o0
o2
n0.2962
o5
o0
v1
n-1.313
n2.0
n0.6826
n-1.0
o2
n-2.8342
o5
o0
v0
n-0.44689
n2.0
o2
o2
o2
o2
n-3.4172532336
o5
v1
n0.4395
o5
v0
n2.0
o0
o2
n-1.599
v0
n0.91143
o44
o0
o2
n-2.43
o5
o0
v1
n-1.2906
n2.0
o2
n-0.7995
o5
o0
v0
n-0.57
n2.0
o2
o2
o2
o2
n-7.3245049927000005
v0
o5
v1
n3.3315
o0
o2
n-5.6904
v0
n2.54816112
o44
o0
o5
o0
o2
n0.3696
o5
o0
v1
n-1.108
n2.0
n1.244
n-1.0
o2
n-2.8452
o5
o0
v0
n-0.4478
n2.0
o2
o2
o2
o2
o2
n3.957852e-05
o5
v1
n4.5
o5
v0
n3.0
o0
v1
n-1.852
o0
o2
n-8.28
v0
n25.005599999999998
o44
o0
o2
n-4.14
o5
o0
v0
n-3.02
n2.0
o2
n-1.14
o5
o0
v1
n-1.852
n2.0
o2
o2
o2
o2
o2
n8.304838080000001
v0
o5
v1
n0.643
o0
v1
n-0.934
o0
o2
n-0.7148
v0
n-0.1736964
o44
o0
o2
n-1.1
o5
o0
v1
n-0.934
n2.0
o2
n-0.3574
o5
o0
v0
n0.243
n2.0
o2
o2
o2
o2
o2
n17.1971273361
v0
o5
v1
n1.3
o0
v1
n-1.2777
o0
o2
n-1.2848
v0
n-0.16368352
o44
o0
o2
n-1.4865
o5
o0
v1
n-1.2777
n2.0
o2
n-0.6424
o5
o0
v0
n0.1274
n2.0
o2
o2
o2
o2
o2
n11.537235648000001
o5
v1
n1.4395
o5
v0
n2.0
o0
v1
n-1.2906
o0
o2
n-1.599
v0
n0.91143
o44
o0
o2
n-2.43
o5
o0
v1
n-1.2906
n2.0
o2
n-0.7995
o5
o0
v0
n-0.57
n2.0
o2
o2
o2
o2
o2
n254.60473772240002
v1
v0
o0
v1
n-1.05897
o0
o2
n-45.12
v0
n43.197888
o44
o0
o2
n-22.56
o5
o0
v0
n-0.9574
n2.0
o2
n-945.64
o5
o0
v1
n-1.05897
n2.0
o2
o2
o2
o2
o2
n-0.00106323916
o5
v1
n1.13
o5
v0
n3.0
o0
v1
n-0.919
o0
o2
n-2.42
v0
n7.1632
o44
o0
o2
n-1.21
o5
o0
v0
n-2.96
n2.0
o2
n-0.85
o5
o0
v1
n-0.919
n2.0
o2
o2
o2
o2
o2
n-0.01457848272
o5
v1
n1.623
o5
v0
n2.0
o0
v1
n-0.928
o0
o2
n-1.82
v0
n4.0040000000000004
o44
o0
o2
n-0.488
o5
o0
v1
n-0.928
n2.0
o2
n-0.91
o5
o0
v0
n-2.2
n2.0
o2
o2
o2
o2
o2
n-154.028320820803
v0
o5
v1
n4.0
o0
v1
n-1.05277
o0
o2
n-45.36
v0
n43.436735999999996
o44
o0
o2
n-22.68
o5
o0
v0
n-0.9576
n2.0
o2
n-993.85
o5
o0
v1
n-1.05277
n2.0
o2
o2
o2
o2
o2
n-10.3811778186
v0
o5
v1
n3.1
o0
v1
n-1.083
o0
o2
n-1.635
v0
n1.2306645
o44
o0
o2
n-2.0915
o5
o0
v1
n-1.083
n2.0
o2
n-0.8175
o5
o0
v0
n-0.7527
n2.0
o2
o2
o2
o2
o2
n-21.222166448
v0
o5
v1
n0.655
o0
v1
n-1.036
o0
o2
n-0.85552
v0
n-0.06211075199999999
o44
o0
o2
n-1.708
o5
o0
v1
n-1.036
n2.0
o2
n-0.42776
o5
o0
v0
n0.0726
n2.0
o2
o2
o2
o2
o2
o2
n1.24997670336
v0
o5
v1
n4.3315
o5
o0
o2
n0.3696
o5
o0
v1
n-1.108
n2.0
n1.244
n-2.0
o0
v1
n-1.108
o0
o2
n-5.6904
v0
n2.54816112
o44
o0
o5
o0
o2
n0.3696
o5
o0
v1
n-1.108
n2.0
n1.244
n-1.0
o2
n-2.8452
o5
o0
v0
n-0.4478
n2.0
o2
o2
o2
o2
o2
o2
n-0.555310274376
v0
o5
v1
n4.015
o5
o0
o2
n0.2962
o5
o0
v1
n-1.313
n2.0
n0.6826
n-2.0
o0
v1
n-1.313
o0
o2
n-5.6684
v0
n2.533151276
o44
o0
o5
o0
o2
n0.2962
o5
o0
v1
n-1.313
n2.0
n0.6826
n-1.0
o2
n-2.8342
o5
o0
v0
n-0.44689
n2.0
n-2.2261792
O11 0
o0
o54
6
o2
n2.447
o5
o0
o16
o3
n1
v1
n1
n0.384
o2
n5.8341
o5
o0
o16
o3
n1
v1
n1
n1.65
o2
n-25.944
o5
o0
o16
o3
n1
v1
n1
n2.2
o2
n53.383
o5
o0
o16
o3
n1
v1
n1
n2.75
o2
n-54.411
o5
o0
o16
o3
n1
v1
n1
n3.35
o2
n22.771
o5
o0
o16
o3
n1
v1
n1
n4.0
n1.0
O12 0
o44
o54
6
o2
n-0.053296
o5
o0
o16
o3
n1
v1
n1
n0.14
o2
n-3.4589
o5
o0
o16
o3
n1
v1
n1
n0.44
o2
n-6.7572
o5
o0
o16
o3
n1
v1
n1
n1.314
o2
n-17.26
o5
o0
o16
o3
n1
v1
n1
n3.225
o2
n-43.12
o5
o0
o16
o3
n1
v1
n1
n6.4
o2
n-115.18
o5
o0
o16
o3
n1
v1
n1
n14.0
O13 0
n0.0
x2
0 1.00000001
1 1.0
r
b
3
3
k1
0
G0 2
0 0
1 5.60101151987913
G1 1
0 0
G2 1
0 0
G3 1
1 0
G4 1
1 0
G5 2
0 0
1 0
G6 2
0 0
1 -2.2261792
G7 2
0 0
1 -0.60255106
G8 2
0 -2.2261792
1 0
G9 2
0 0
1 0
G10 2
0 -0.60255106
1 0
G11 1
1 0
G12 1
1 0
